row=11;
column=11;
Board=[|0,0,4,6,6,0,0,0,0,0,0|0,0,0,0,0,0,0,0,0,0,0|0,0,0,0,0,0,0,0,0,0,0|0,6,0,0,1,0,0,0,0,0,0|0,3,0,0,0,0,4,5,0,0,0|0,0,0,0,0,0,0,0,0,0,0|0,0,0,0,0,0,1,0,0,0,0|1,0,0,0,0,0,0,0,0,0,0|0,0,0,0,0,0,6,5,0,0,0|0,0,0,3,0,0,0,0,0,2,0|0,0,0,0,0,0,0,0,0,3,0|];
right = [4,0,1,2,3,0,1,1,4,2,2];
bottom = [1,3,1,3,2,3,3,2,0,2,0];
